NAME: instance_2651
TYPE: TSP
DIMENSION: 20
EDGE_WEIGHT_TYPE: EUC_2D
NODE_COORD_SECTION
0 76.04 59.63
1 68.90 1.63
2 5.52 89.65
3 70.80 54.19
4 89.15 50.94
5 61.64 64.48
6 37.38 41.89
7 69.44 99.16
8 4.88 27.93
9 61.09 3.32
10 22.70 33.88
11 62.09 19.75
12 97.63 13.37
13 54.33 25.05
14 66.98 45.50
15 52.11 21.63
16 24.30 30.22
17 83.19 36.80
18 97.09 75.04
19 22.31 61.67
EOF
